c
c    Commentaires
c
p cnf 3 4               // cnf à 3 variables et 4 clauses
1 2 3 0                 // On associe ensuite chaque variable à un numéro à partir de 1 (-x = non x)
-1 -2 0                 // 0 = char de fin de ligne
-2 -3 0
-1 -3 0
                        // \n final = fin de fichier
